\ Model pathplanner
\ LP format - for model browsing. Use MPS format to capture full model detail.
Minimize
  delta_1 + delta_2 + delta_3 + delta_4 + delta_5 + delta_6 + delta_7
   + delta_8 + delta_9 + delta_10
Subject To
 c1_1,1,1: x_1,1,1 = 1
 c1_1,2,1: x_1,2,1 = 0
 c1_1,3,1: x_1,3,1 = 0
 c2_1,2: x_1,1,2 + x_1,2,2 + x_1,3,2 = 1
 c2_1,3: x_1,1,3 + x_1,2,3 + x_1,3,3 = 1
 c2_1,4: x_1,1,4 + x_1,2,4 + x_1,3,4 = 1
 c2_1,5: x_1,1,5 + x_1,2,5 + x_1,3,5 = 1
 c2_1,6: x_1,1,6 + x_1,2,6 + x_1,3,6 = 1
 c2_1,7: x_1,1,7 + x_1,2,7 + x_1,3,7 = 1
 c2_1,8: x_1,1,8 + x_1,2,8 + x_1,3,8 = 1
 c2_1,9: x_1,1,9 + x_1,2,9 + x_1,3,9 = 1
 c2_1,10: x_1,1,10 + x_1,2,10 + x_1,3,10 = 1
 c3_1: x_1,3,1 + x_1,3,2 + x_1,3,3 + x_1,3,4 + x_1,3,5 + x_1,3,6 + x_1,3,7
   + x_1,3,8 + x_1,3,9 + x_1,3,10 >= 1
 c4_1: delta_1 + x_1,3,1 >= 1
 c4_2: delta_2 + x_1,3,2 >= 1
 c4_3: delta_3 + x_1,3,3 >= 1
 c4_4: delta_4 + x_1,3,4 >= 1
 c4_5: delta_5 + x_1,3,5 >= 1
 c4_6: delta_6 + x_1,3,6 >= 1
 c4_7: delta_7 + x_1,3,7 >= 1
 c4_8: delta_8 + x_1,3,8 >= 1
 c4_9: delta_9 + x_1,3,9 >= 1
 c4_10: delta_10 + x_1,3,10 >= 1
 c5a_1,1: e_1,1,2,1 + e_1,1,1,1 <= 1
 c5b_1,1: e_1,2,1,1 + e_1,2,3,1 + e_1,3,3,1 + e_1,2,2,1 + e_1,3,2,1 = 0
 c6_1,2: e_1,1,2,2 + e_1,2,1,2 + e_1,1,1,2 + e_1,2,3,2 + e_1,3,3,2
   + e_1,2,2,2 + e_1,3,2,2 = 1
 c6_1,3: e_1,1,2,3 + e_1,2,1,3 + e_1,1,1,3 + e_1,2,3,3 + e_1,3,3,3
   + e_1,2,2,3 + e_1,3,2,3 = 1
 c6_1,4: e_1,1,2,4 + e_1,2,1,4 + e_1,1,1,4 + e_1,2,3,4 + e_1,3,3,4
   + e_1,2,2,4 + e_1,3,2,4 = 1
 c6_1,5: e_1,1,2,5 + e_1,2,1,5 + e_1,1,1,5 + e_1,2,3,5 + e_1,3,3,5
   + e_1,2,2,5 + e_1,3,2,5 = 1
 c6_1,6: e_1,1,2,6 + e_1,2,1,6 + e_1,1,1,6 + e_1,2,3,6 + e_1,3,3,6
   + e_1,2,2,6 + e_1,3,2,6 = 1
 c6_1,7: e_1,1,2,7 + e_1,2,1,7 + e_1,1,1,7 + e_1,2,3,7 + e_1,3,3,7
   + e_1,2,2,7 + e_1,3,2,7 = 1
 c6_1,8: e_1,1,2,8 + e_1,2,1,8 + e_1,1,1,8 + e_1,2,3,8 + e_1,3,3,8
   + e_1,2,2,8 + e_1,3,2,8 = 1
 c6_1,9: e_1,1,2,9 + e_1,2,1,9 + e_1,1,1,9 + e_1,2,3,9 + e_1,3,3,9
   + e_1,2,2,9 + e_1,3,2,9 = 1
 c7_1,1,2: e_1,1,2,2 - e_1,2,1,1 - e_1,1,1,1 + e_1,1,1,2 = 0
 c7_1,1,3: e_1,1,2,3 - e_1,2,1,2 - e_1,1,1,2 + e_1,1,1,3 = 0
 c7_1,1,4: e_1,1,2,4 - e_1,2,1,3 - e_1,1,1,3 + e_1,1,1,4 = 0
 c7_1,1,5: e_1,1,2,5 - e_1,2,1,4 - e_1,1,1,4 + e_1,1,1,5 = 0
 c7_1,1,6: e_1,1,2,6 - e_1,2,1,5 - e_1,1,1,5 + e_1,1,1,6 = 0
 c7_1,1,7: e_1,1,2,7 - e_1,2,1,6 - e_1,1,1,6 + e_1,1,1,7 = 0
 c7_1,1,8: e_1,1,2,8 - e_1,2,1,7 - e_1,1,1,7 + e_1,1,1,8 = 0
 c7_1,1,9: e_1,1,2,9 - e_1,2,1,8 - e_1,1,1,8 + e_1,1,1,9 = 0
 c7_1,2,2: - e_1,1,2,1 + e_1,2,1,2 + e_1,2,3,2 - e_1,2,2,1 + e_1,2,2,2
   - e_1,3,2,1 = 0
 c7_1,2,3: - e_1,1,2,2 + e_1,2,1,3 + e_1,2,3,3 - e_1,2,2,2 + e_1,2,2,3
   - e_1,3,2,2 = 0
 c7_1,2,4: - e_1,1,2,3 + e_1,2,1,4 + e_1,2,3,4 - e_1,2,2,3 + e_1,2,2,4
   - e_1,3,2,3 = 0
 c7_1,2,5: - e_1,1,2,4 + e_1,2,1,5 + e_1,2,3,5 - e_1,2,2,4 + e_1,2,2,5
   - e_1,3,2,4 = 0
 c7_1,2,6: - e_1,1,2,5 + e_1,2,1,6 + e_1,2,3,6 - e_1,2,2,5 + e_1,2,2,6
   - e_1,3,2,5 = 0
 c7_1,2,7: - e_1,1,2,6 + e_1,2,1,7 + e_1,2,3,7 - e_1,2,2,6 + e_1,2,2,7
   - e_1,3,2,6 = 0
 c7_1,2,8: - e_1,1,2,7 + e_1,2,1,8 + e_1,2,3,8 - e_1,2,2,7 + e_1,2,2,8
   - e_1,3,2,7 = 0
 c7_1,2,9: - e_1,1,2,8 + e_1,2,1,9 + e_1,2,3,9 - e_1,2,2,8 + e_1,2,2,9
   - e_1,3,2,8 = 0
 c7_1,3,2: - e_1,2,3,1 - e_1,3,3,1 + e_1,3,3,2 + e_1,3,2,2 = 0
 c7_1,3,3: - e_1,2,3,2 - e_1,3,3,2 + e_1,3,3,3 + e_1,3,2,3 = 0
 c7_1,3,4: - e_1,2,3,3 - e_1,3,3,3 + e_1,3,3,4 + e_1,3,2,4 = 0
 c7_1,3,5: - e_1,2,3,4 - e_1,3,3,4 + e_1,3,3,5 + e_1,3,2,5 = 0
 c7_1,3,6: - e_1,2,3,5 - e_1,3,3,5 + e_1,3,3,6 + e_1,3,2,6 = 0
 c7_1,3,7: - e_1,2,3,6 - e_1,3,3,6 + e_1,3,3,7 + e_1,3,2,7 = 0
 c7_1,3,8: - e_1,2,3,7 - e_1,3,3,7 + e_1,3,3,8 + e_1,3,2,8 = 0
 c7_1,3,9: - e_1,2,3,8 - e_1,3,3,8 + e_1,3,3,9 + e_1,3,2,9 = 0
 c8_1,1: p_1,1,1 <= 1
 c8_1,2: p_1,1,2 <= 1
 c8_1,3: p_1,1,3 <= 1
 c8_1,4: p_1,1,4 <= 1
 c8_1,5: p_1,1,5 <= 1
 c8_1,6: p_1,1,6 <= 1
 c8_1,7: p_1,1,7 <= 1
 c8_1,8: p_1,1,8 <= 1
 c8_1,9: p_1,1,9 <= 1
 c9a_1,1,2,1: x_1,1,1 + x_1,2,2 - p_1,1,1 <= 1
 c9b_1,1,1,2,1: - e_1,1,2,1 + x_1,1,1 + x_1,2,2 + p_1,1,1 <= 2
 c9c_1,1,1,2,1: e_1,1,2,1 - x_1,1,1 + p_1,1,1 <= 1
 c9d_1,1,1,2,1: e_1,1,2,1 - x_1,2,2 + p_1,1,1 <= 1
 c9a_1,1,2,2: x_1,1,2 + x_1,2,3 - p_1,1,2 <= 1
 c9b_1,1,1,2,2: - e_1,1,2,2 + x_1,1,2 + x_1,2,3 + p_1,1,2 <= 2
 c9c_1,1,1,2,2: e_1,1,2,2 - x_1,1,2 + p_1,1,2 <= 1
 c9d_1,1,1,2,2: e_1,1,2,2 - x_1,2,3 + p_1,1,2 <= 1
 c9a_1,1,2,3: x_1,1,3 + x_1,2,4 - p_1,1,3 <= 1
 c9b_1,1,1,2,3: - e_1,1,2,3 + x_1,1,3 + x_1,2,4 + p_1,1,3 <= 2
 c9c_1,1,1,2,3: e_1,1,2,3 - x_1,1,3 + p_1,1,3 <= 1
 c9d_1,1,1,2,3: e_1,1,2,3 - x_1,2,4 + p_1,1,3 <= 1
 c9a_1,1,2,4: x_1,1,4 + x_1,2,5 - p_1,1,4 <= 1
 c9b_1,1,1,2,4: - e_1,1,2,4 + x_1,1,4 + x_1,2,5 + p_1,1,4 <= 2
 c9c_1,1,1,2,4: e_1,1,2,4 - x_1,1,4 + p_1,1,4 <= 1
 c9d_1,1,1,2,4: e_1,1,2,4 - x_1,2,5 + p_1,1,4 <= 1
 c9a_1,1,2,5: x_1,1,5 + x_1,2,6 - p_1,1,5 <= 1
 c9b_1,1,1,2,5: - e_1,1,2,5 + x_1,1,5 + x_1,2,6 + p_1,1,5 <= 2
 c9c_1,1,1,2,5: e_1,1,2,5 - x_1,1,5 + p_1,1,5 <= 1
 c9d_1,1,1,2,5: e_1,1,2,5 - x_1,2,6 + p_1,1,5 <= 1
 c9a_1,1,2,6: x_1,1,6 + x_1,2,7 - p_1,1,6 <= 1
 c9b_1,1,1,2,6: - e_1,1,2,6 + x_1,1,6 + x_1,2,7 + p_1,1,6 <= 2
 c9c_1,1,1,2,6: e_1,1,2,6 - x_1,1,6 + p_1,1,6 <= 1
 c9d_1,1,1,2,6: e_1,1,2,6 - x_1,2,7 + p_1,1,6 <= 1
 c9a_1,1,2,7: x_1,1,7 + x_1,2,8 - p_1,1,7 <= 1
 c9b_1,1,1,2,7: - e_1,1,2,7 + x_1,1,7 + x_1,2,8 + p_1,1,7 <= 2
 c9c_1,1,1,2,7: e_1,1,2,7 - x_1,1,7 + p_1,1,7 <= 1
 c9d_1,1,1,2,7: e_1,1,2,7 - x_1,2,8 + p_1,1,7 <= 1
 c9a_1,1,2,8: x_1,1,8 + x_1,2,9 - p_1,1,8 <= 1
 c9b_1,1,1,2,8: - e_1,1,2,8 + x_1,1,8 + x_1,2,9 + p_1,1,8 <= 2
 c9c_1,1,1,2,8: e_1,1,2,8 - x_1,1,8 + p_1,1,8 <= 1
 c9d_1,1,1,2,8: e_1,1,2,8 - x_1,2,9 + p_1,1,8 <= 1
 c9a_1,1,2,9: x_1,1,9 + x_1,2,10 - p_1,1,9 <= 1
 c9b_1,1,1,2,9: - e_1,1,2,9 + x_1,1,9 + x_1,2,10 + p_1,1,9 <= 2
 c9c_1,1,1,2,9: e_1,1,2,9 - x_1,1,9 + p_1,1,9 <= 1
 c9d_1,1,1,2,9: e_1,1,2,9 - x_1,2,10 + p_1,1,9 <= 1
 c9a_1,2,1,1: x_1,1,2 + x_1,2,1 - p_1,1,1 <= 1
 c9b_1,1,2,1,1: - e_1,2,1,1 + x_1,1,2 + x_1,2,1 + p_1,1,1 <= 2
 c9c_1,1,2,1,1: e_1,2,1,1 - x_1,2,1 + p_1,1,1 <= 1
 c9d_1,1,2,1,1: e_1,2,1,1 - x_1,1,2 + p_1,1,1 <= 1
 c9a_1,2,1,2: x_1,1,3 + x_1,2,2 - p_1,1,2 <= 1
 c9b_1,1,2,1,2: - e_1,2,1,2 + x_1,1,3 + x_1,2,2 + p_1,1,2 <= 2
 c9c_1,1,2,1,2: e_1,2,1,2 - x_1,2,2 + p_1,1,2 <= 1
 c9d_1,1,2,1,2: e_1,2,1,2 - x_1,1,3 + p_1,1,2 <= 1
 c9a_1,2,1,3: x_1,1,4 + x_1,2,3 - p_1,1,3 <= 1
 c9b_1,1,2,1,3: - e_1,2,1,3 + x_1,1,4 + x_1,2,3 + p_1,1,3 <= 2
 c9c_1,1,2,1,3: e_1,2,1,3 - x_1,2,3 + p_1,1,3 <= 1
 c9d_1,1,2,1,3: e_1,2,1,3 - x_1,1,4 + p_1,1,3 <= 1
 c9a_1,2,1,4: x_1,1,5 + x_1,2,4 - p_1,1,4 <= 1
 c9b_1,1,2,1,4: - e_1,2,1,4 + x_1,1,5 + x_1,2,4 + p_1,1,4 <= 2
 c9c_1,1,2,1,4: e_1,2,1,4 - x_1,2,4 + p_1,1,4 <= 1
 c9d_1,1,2,1,4: e_1,2,1,4 - x_1,1,5 + p_1,1,4 <= 1
 c9a_1,2,1,5: x_1,1,6 + x_1,2,5 - p_1,1,5 <= 1
 c9b_1,1,2,1,5: - e_1,2,1,5 + x_1,1,6 + x_1,2,5 + p_1,1,5 <= 2
 c9c_1,1,2,1,5: e_1,2,1,5 - x_1,2,5 + p_1,1,5 <= 1
 c9d_1,1,2,1,5: e_1,2,1,5 - x_1,1,6 + p_1,1,5 <= 1
 c9a_1,2,1,6: x_1,1,7 + x_1,2,6 - p_1,1,6 <= 1
 c9b_1,1,2,1,6: - e_1,2,1,6 + x_1,1,7 + x_1,2,6 + p_1,1,6 <= 2
 c9c_1,1,2,1,6: e_1,2,1,6 - x_1,2,6 + p_1,1,6 <= 1
 c9d_1,1,2,1,6: e_1,2,1,6 - x_1,1,7 + p_1,1,6 <= 1
 c9a_1,2,1,7: x_1,1,8 + x_1,2,7 - p_1,1,7 <= 1
 c9b_1,1,2,1,7: - e_1,2,1,7 + x_1,1,8 + x_1,2,7 + p_1,1,7 <= 2
 c9c_1,1,2,1,7: e_1,2,1,7 - x_1,2,7 + p_1,1,7 <= 1
 c9d_1,1,2,1,7: e_1,2,1,7 - x_1,1,8 + p_1,1,7 <= 1
 c9a_1,2,1,8: x_1,1,9 + x_1,2,8 - p_1,1,8 <= 1
 c9b_1,1,2,1,8: - e_1,2,1,8 + x_1,1,9 + x_1,2,8 + p_1,1,8 <= 2
 c9c_1,1,2,1,8: e_1,2,1,8 - x_1,2,8 + p_1,1,8 <= 1
 c9d_1,1,2,1,8: e_1,2,1,8 - x_1,1,9 + p_1,1,8 <= 1
 c9a_1,2,1,9: x_1,1,10 + x_1,2,9 - p_1,1,9 <= 1
 c9b_1,1,2,1,9: - e_1,2,1,9 + x_1,1,10 + x_1,2,9 + p_1,1,9 <= 2
 c9c_1,1,2,1,9: e_1,2,1,9 - x_1,2,9 + p_1,1,9 <= 1
 c9d_1,1,2,1,9: e_1,2,1,9 - x_1,1,10 + p_1,1,9 <= 1
 c9a_1,2,3,1: x_1,2,1 + x_1,3,2 - p_1,1,1 <= 1
 c9b_1,1,2,3,1: - e_1,2,3,1 + x_1,2,1 + x_1,3,2 + p_1,1,1 <= 2
 c9c_1,1,2,3,1: e_1,2,3,1 - x_1,2,1 + p_1,1,1 <= 1
 c9d_1,1,2,3,1: e_1,2,3,1 - x_1,3,2 + p_1,1,1 <= 1
 c9a_1,2,3,2: x_1,2,2 + x_1,3,3 - p_1,1,2 <= 1
 c9b_1,1,2,3,2: - e_1,2,3,2 + x_1,2,2 + x_1,3,3 + p_1,1,2 <= 2
 c9c_1,1,2,3,2: e_1,2,3,2 - x_1,2,2 + p_1,1,2 <= 1
 c9d_1,1,2,3,2: e_1,2,3,2 - x_1,3,3 + p_1,1,2 <= 1
 c9a_1,2,3,3: x_1,2,3 + x_1,3,4 - p_1,1,3 <= 1
 c9b_1,1,2,3,3: - e_1,2,3,3 + x_1,2,3 + x_1,3,4 + p_1,1,3 <= 2
 c9c_1,1,2,3,3: e_1,2,3,3 - x_1,2,3 + p_1,1,3 <= 1
 c9d_1,1,2,3,3: e_1,2,3,3 - x_1,3,4 + p_1,1,3 <= 1
 c9a_1,2,3,4: x_1,2,4 + x_1,3,5 - p_1,1,4 <= 1
 c9b_1,1,2,3,4: - e_1,2,3,4 + x_1,2,4 + x_1,3,5 + p_1,1,4 <= 2
 c9c_1,1,2,3,4: e_1,2,3,4 - x_1,2,4 + p_1,1,4 <= 1
 c9d_1,1,2,3,4: e_1,2,3,4 - x_1,3,5 + p_1,1,4 <= 1
 c9a_1,2,3,5: x_1,2,5 + x_1,3,6 - p_1,1,5 <= 1
 c9b_1,1,2,3,5: - e_1,2,3,5 + x_1,2,5 + x_1,3,6 + p_1,1,5 <= 2
 c9c_1,1,2,3,5: e_1,2,3,5 - x_1,2,5 + p_1,1,5 <= 1
 c9d_1,1,2,3,5: e_1,2,3,5 - x_1,3,6 + p_1,1,5 <= 1
 c9a_1,2,3,6: x_1,2,6 + x_1,3,7 - p_1,1,6 <= 1
 c9b_1,1,2,3,6: - e_1,2,3,6 + x_1,2,6 + x_1,3,7 + p_1,1,6 <= 2
 c9c_1,1,2,3,6: e_1,2,3,6 - x_1,2,6 + p_1,1,6 <= 1
 c9d_1,1,2,3,6: e_1,2,3,6 - x_1,3,7 + p_1,1,6 <= 1
 c9a_1,2,3,7: x_1,2,7 + x_1,3,8 - p_1,1,7 <= 1
 c9b_1,1,2,3,7: - e_1,2,3,7 + x_1,2,7 + x_1,3,8 + p_1,1,7 <= 2
 c9c_1,1,2,3,7: e_1,2,3,7 - x_1,2,7 + p_1,1,7 <= 1
 c9d_1,1,2,3,7: e_1,2,3,7 - x_1,3,8 + p_1,1,7 <= 1
 c9a_1,2,3,8: x_1,2,8 + x_1,3,9 - p_1,1,8 <= 1
 c9b_1,1,2,3,8: - e_1,2,3,8 + x_1,2,8 + x_1,3,9 + p_1,1,8 <= 2
 c9c_1,1,2,3,8: e_1,2,3,8 - x_1,2,8 + p_1,1,8 <= 1
 c9d_1,1,2,3,8: e_1,2,3,8 - x_1,3,9 + p_1,1,8 <= 1
 c9a_1,2,3,9: x_1,2,9 + x_1,3,10 - p_1,1,9 <= 1
 c9b_1,1,2,3,9: - e_1,2,3,9 + x_1,2,9 + x_1,3,10 + p_1,1,9 <= 2
 c9c_1,1,2,3,9: e_1,2,3,9 - x_1,2,9 + p_1,1,9 <= 1
 c9d_1,1,2,3,9: e_1,2,3,9 - x_1,3,10 + p_1,1,9 <= 1
 c9a_1,3,2,1: x_1,2,2 + x_1,3,1 - p_1,1,1 <= 1
 c9b_1,1,3,2,1: - e_1,3,2,1 + x_1,2,2 + x_1,3,1 + p_1,1,1 <= 2
 c9c_1,1,3,2,1: e_1,3,2,1 - x_1,3,1 + p_1,1,1 <= 1
 c9d_1,1,3,2,1: e_1,3,2,1 - x_1,2,2 + p_1,1,1 <= 1
 c9a_1,3,2,2: x_1,2,3 + x_1,3,2 - p_1,1,2 <= 1
 c9b_1,1,3,2,2: - e_1,3,2,2 + x_1,2,3 + x_1,3,2 + p_1,1,2 <= 2
 c9c_1,1,3,2,2: e_1,3,2,2 - x_1,3,2 + p_1,1,2 <= 1
 c9d_1,1,3,2,2: e_1,3,2,2 - x_1,2,3 + p_1,1,2 <= 1
 c9a_1,3,2,3: x_1,2,4 + x_1,3,3 - p_1,1,3 <= 1
 c9b_1,1,3,2,3: - e_1,3,2,3 + x_1,2,4 + x_1,3,3 + p_1,1,3 <= 2
 c9c_1,1,3,2,3: e_1,3,2,3 - x_1,3,3 + p_1,1,3 <= 1
 c9d_1,1,3,2,3: e_1,3,2,3 - x_1,2,4 + p_1,1,3 <= 1
 c9a_1,3,2,4: x_1,2,5 + x_1,3,4 - p_1,1,4 <= 1
 c9b_1,1,3,2,4: - e_1,3,2,4 + x_1,2,5 + x_1,3,4 + p_1,1,4 <= 2
 c9c_1,1,3,2,4: e_1,3,2,4 - x_1,3,4 + p_1,1,4 <= 1
 c9d_1,1,3,2,4: e_1,3,2,4 - x_1,2,5 + p_1,1,4 <= 1
 c9a_1,3,2,5: x_1,2,6 + x_1,3,5 - p_1,1,5 <= 1
 c9b_1,1,3,2,5: - e_1,3,2,5 + x_1,2,6 + x_1,3,5 + p_1,1,5 <= 2
 c9c_1,1,3,2,5: e_1,3,2,5 - x_1,3,5 + p_1,1,5 <= 1
 c9d_1,1,3,2,5: e_1,3,2,5 - x_1,2,6 + p_1,1,5 <= 1
 c9a_1,3,2,6: x_1,2,7 + x_1,3,6 - p_1,1,6 <= 1
 c9b_1,1,3,2,6: - e_1,3,2,6 + x_1,2,7 + x_1,3,6 + p_1,1,6 <= 2
 c9c_1,1,3,2,6: e_1,3,2,6 - x_1,3,6 + p_1,1,6 <= 1
 c9d_1,1,3,2,6: e_1,3,2,6 - x_1,2,7 + p_1,1,6 <= 1
 c9a_1,3,2,7: x_1,2,8 + x_1,3,7 - p_1,1,7 <= 1
 c9b_1,1,3,2,7: - e_1,3,2,7 + x_1,2,8 + x_1,3,7 + p_1,1,7 <= 2
 c9c_1,1,3,2,7: e_1,3,2,7 - x_1,3,7 + p_1,1,7 <= 1
 c9d_1,1,3,2,7: e_1,3,2,7 - x_1,2,8 + p_1,1,7 <= 1
 c9a_1,3,2,8: x_1,2,9 + x_1,3,8 - p_1,1,8 <= 1
 c9b_1,1,3,2,8: - e_1,3,2,8 + x_1,2,9 + x_1,3,8 + p_1,1,8 <= 2
 c9c_1,1,3,2,8: e_1,3,2,8 - x_1,3,8 + p_1,1,8 <= 1
 c9d_1,1,3,2,8: e_1,3,2,8 - x_1,2,9 + p_1,1,8 <= 1
 c9a_1,3,2,9: x_1,2,10 + x_1,3,9 - p_1,1,9 <= 1
 c9b_1,1,3,2,9: - e_1,3,2,9 + x_1,2,10 + x_1,3,9 + p_1,1,9 <= 2
 c9c_1,1,3,2,9: e_1,3,2,9 - x_1,3,9 + p_1,1,9 <= 1
 c9d_1,1,3,2,9: e_1,3,2,9 - x_1,2,10 + p_1,1,9 <= 1
 c10_1,1,31: x_1,1,1 + x_1,3,2 <= 1
 c10_1,3,11: x_1,1,2 + x_1,3,1 <= 1
 c10_1,1,32: x_1,1,2 + x_1,3,3 <= 1
 c10_1,3,12: x_1,1,3 + x_1,3,2 <= 1
 c10_1,1,33: x_1,1,3 + x_1,3,4 <= 1
 c10_1,3,13: x_1,1,4 + x_1,3,3 <= 1
 c10_1,1,34: x_1,1,4 + x_1,3,5 <= 1
 c10_1,3,14: x_1,1,5 + x_1,3,4 <= 1
 c10_1,1,35: x_1,1,5 + x_1,3,6 <= 1
 c10_1,3,15: x_1,1,6 + x_1,3,5 <= 1
 c10_1,1,36: x_1,1,6 + x_1,3,7 <= 1
 c10_1,3,16: x_1,1,7 + x_1,3,6 <= 1
 c10_1,1,37: x_1,1,7 + x_1,3,8 <= 1
 c10_1,3,17: x_1,1,8 + x_1,3,7 <= 1
 c10_1,1,38: x_1,1,8 + x_1,3,9 <= 1
 c10_1,3,18: x_1,1,9 + x_1,3,8 <= 1
 c10_1,1,39: x_1,1,9 + x_1,3,10 <= 1
 c10_1,3,19: x_1,1,10 + x_1,3,9 <= 1
 c11_1,1: p_1,1,1 <= 1
 c11_1,2: p_1,1,2 <= 1
 c11_1,3: p_1,1,3 <= 1
 c11_1,4: p_1,1,4 <= 1
 c11_1,5: p_1,1,5 <= 1
 c11_1,6: p_1,1,6 <= 1
 c11_1,7: p_1,1,7 <= 1
 c11_1,8: p_1,1,8 <= 1
 c11_1,9: p_1,1,9 <= 1
 c12_1,1init: e_1,1,2,1 + e_1,1,1,1 <= 1
 c12_2,1init: e_1,2,1,1 + e_1,2,3,1 + e_1,2,2,1 <= 1
 c12_3,1init: e_1,3,3,1 + e_1,3,2,1 <= 1
 c12_1,1: e_1,2,1,1 + e_1,1,1,1 <= 1
 c12_1,2: e_1,2,1,2 + e_1,1,1,2 <= 1
 c12_1,3: e_1,2,1,3 + e_1,1,1,3 <= 1
 c12_1,4: e_1,2,1,4 + e_1,1,1,4 <= 1
 c12_1,5: e_1,2,1,5 + e_1,1,1,5 <= 1
 c12_1,6: e_1,2,1,6 + e_1,1,1,6 <= 1
 c12_1,7: e_1,2,1,7 + e_1,1,1,7 <= 1
 c12_1,8: e_1,2,1,8 + e_1,1,1,8 <= 1
 c12_1,9: e_1,2,1,9 + e_1,1,1,9 <= 1
 c12_2,1: e_1,1,2,1 + e_1,2,2,1 + e_1,3,2,1 <= 1
 c12_2,2: e_1,1,2,2 + e_1,2,2,2 + e_1,3,2,2 <= 1
 c12_2,3: e_1,1,2,3 + e_1,2,2,3 + e_1,3,2,3 <= 1
 c12_2,4: e_1,1,2,4 + e_1,2,2,4 + e_1,3,2,4 <= 1
 c12_2,5: e_1,1,2,5 + e_1,2,2,5 + e_1,3,2,5 <= 1
 c12_2,6: e_1,1,2,6 + e_1,2,2,6 + e_1,3,2,6 <= 1
 c12_2,7: e_1,1,2,7 + e_1,2,2,7 + e_1,3,2,7 <= 1
 c12_2,8: e_1,1,2,8 + e_1,2,2,8 + e_1,3,2,8 <= 1
 c12_2,9: e_1,1,2,9 + e_1,2,2,9 + e_1,3,2,9 <= 1
 c12_3,1: e_1,2,3,1 + e_1,3,3,1 <= 1
 c12_3,2: e_1,2,3,2 + e_1,3,3,2 <= 1
 c12_3,3: e_1,2,3,3 + e_1,3,3,3 <= 1
 c12_3,4: e_1,2,3,4 + e_1,3,3,4 <= 1
 c12_3,5: e_1,2,3,5 + e_1,3,3,5 <= 1
 c12_3,6: e_1,2,3,6 + e_1,3,3,6 <= 1
 c12_3,7: e_1,2,3,7 + e_1,3,3,7 <= 1
 c12_3,8: e_1,2,3,8 + e_1,3,3,8 <= 1
 c12_3,9: e_1,2,3,9 + e_1,3,3,9 <= 1
 c13_1: soc_1,1 = 1
 c14_1,1: - e_1,1,1,1 - e_1,3,3,1 - e_1,2,2,1 + gamma_1,1 <= 0
 c14_1,2: - e_1,1,1,2 - e_1,3,3,2 - e_1,2,2,2 + gamma_1,2 <= 0
 c14_1,3: - e_1,1,1,3 - e_1,3,3,3 - e_1,2,2,3 + gamma_1,3 <= 0
 c14_1,4: - e_1,1,1,4 - e_1,3,3,4 - e_1,2,2,4 + gamma_1,4 <= 0
 c14_1,5: - e_1,1,1,5 - e_1,3,3,5 - e_1,2,2,5 + gamma_1,5 <= 0
 c14_1,6: - e_1,1,1,6 - e_1,3,3,6 - e_1,2,2,6 + gamma_1,6 <= 0
 c14_1,7: - e_1,1,1,7 - e_1,3,3,7 - e_1,2,2,7 + gamma_1,7 <= 0
 c14_1,8: - e_1,1,1,8 - e_1,3,3,8 - e_1,2,2,8 + gamma_1,8 <= 0
 c14_1,9: - e_1,1,1,9 - e_1,3,3,9 - e_1,2,2,9 + gamma_1,9 <= 0
 c15_1,2: 0.3333333333333333 e_1,1,2,1 + 0.3333333333333333 e_1,2,1,1
   + 0.3333333333333333 e_1,2,3,1 + 0.3333333333333333 e_1,3,2,1
   + 0.5 p_1,1,1 - soc_1,1 - 0.1 gamma_1,1 + soc_1,2 = 0
 c15_1,3: 0.3333333333333333 e_1,1,2,2 + 0.3333333333333333 e_1,2,1,2
   + 0.3333333333333333 e_1,2,3,2 + 0.3333333333333333 e_1,3,2,2
   + 0.5 p_1,1,2 - soc_1,2 - 0.1 gamma_1,2 + soc_1,3 = 0
 c15_1,4: 0.3333333333333333 e_1,1,2,3 + 0.3333333333333333 e_1,2,1,3
   + 0.3333333333333333 e_1,2,3,3 + 0.3333333333333333 e_1,3,2,3
   + 0.5 p_1,1,3 - soc_1,3 - 0.1 gamma_1,3 + soc_1,4 = 0
 c15_1,5: 0.3333333333333333 e_1,1,2,4 + 0.3333333333333333 e_1,2,1,4
   + 0.3333333333333333 e_1,2,3,4 + 0.3333333333333333 e_1,3,2,4
   + 0.5 p_1,1,4 - soc_1,4 - 0.1 gamma_1,4 + soc_1,5 = 0
 c15_1,6: 0.3333333333333333 e_1,1,2,5 + 0.3333333333333333 e_1,2,1,5
   + 0.3333333333333333 e_1,2,3,5 + 0.3333333333333333 e_1,3,2,5
   + 0.5 p_1,1,5 - soc_1,5 - 0.1 gamma_1,5 + soc_1,6 = 0
 c15_1,7: 0.3333333333333333 e_1,1,2,6 + 0.3333333333333333 e_1,2,1,6
   + 0.3333333333333333 e_1,2,3,6 + 0.3333333333333333 e_1,3,2,6
   + 0.5 p_1,1,6 - soc_1,6 - 0.1 gamma_1,6 + soc_1,7 = 0
 c15_1,8: 0.3333333333333333 e_1,1,2,7 + 0.3333333333333333 e_1,2,1,7
   + 0.3333333333333333 e_1,2,3,7 + 0.3333333333333333 e_1,3,2,7
   + 0.5 p_1,1,7 - soc_1,7 - 0.1 gamma_1,7 + soc_1,8 = 0
 c15_1,9: 0.3333333333333333 e_1,1,2,8 + 0.3333333333333333 e_1,2,1,8
   + 0.3333333333333333 e_1,2,3,8 + 0.3333333333333333 e_1,3,2,8
   + 0.5 p_1,1,8 - soc_1,8 - 0.1 gamma_1,8 + soc_1,9 = 0
 c15_1,10: 0.3333333333333333 e_1,1,2,9 + 0.3333333333333333 e_1,2,1,9
   + 0.3333333333333333 e_1,2,3,9 + 0.3333333333333333 e_1,3,2,9
   + 0.5 p_1,1,9 - soc_1,9 - 0.1 gamma_1,9 + soc_1,10 = 0
Bounds
 soc_1,1 <= 1
 soc_1,2 <= 1
 soc_1,3 <= 1
 soc_1,4 <= 1
 soc_1,5 <= 1
 soc_1,6 <= 1
 soc_1,7 <= 1
 soc_1,8 <= 1
 soc_1,9 <= 1
 soc_1,10 <= 1
Binaries
 delta_1 delta_2 delta_3 delta_4 delta_5 delta_6 delta_7 delta_8 delta_9
 delta_10 e_1,1,2,1 e_1,1,2,2 e_1,1,2,3 e_1,1,2,4 e_1,1,2,5 e_1,1,2,6
 e_1,1,2,7 e_1,1,2,8 e_1,1,2,9 e_1,2,1,1 e_1,2,1,2 e_1,2,1,3 e_1,2,1,4
 e_1,2,1,5 e_1,2,1,6 e_1,2,1,7 e_1,2,1,8 e_1,2,1,9 e_1,1,1,1 e_1,1,1,2
 e_1,1,1,3 e_1,1,1,4 e_1,1,1,5 e_1,1,1,6 e_1,1,1,7 e_1,1,1,8 e_1,1,1,9
 e_1,2,3,1 e_1,2,3,2 e_1,2,3,3 e_1,2,3,4 e_1,2,3,5 e_1,2,3,6 e_1,2,3,7
 e_1,2,3,8 e_1,2,3,9 e_1,3,3,1 e_1,3,3,2 e_1,3,3,3 e_1,3,3,4 e_1,3,3,5
 e_1,3,3,6 e_1,3,3,7 e_1,3,3,8 e_1,3,3,9 e_1,2,2,1 e_1,2,2,2 e_1,2,2,3
 e_1,2,2,4 e_1,2,2,5 e_1,2,2,6 e_1,2,2,7 e_1,2,2,8 e_1,2,2,9 e_1,3,2,1
 e_1,3,2,2 e_1,3,2,3 e_1,3,2,4 e_1,3,2,5 e_1,3,2,6 e_1,3,2,7 e_1,3,2,8
 e_1,3,2,9 x_1,1,1 x_1,1,2 x_1,1,3 x_1,1,4 x_1,1,5 x_1,1,6 x_1,1,7 x_1,1,8
 x_1,1,9 x_1,1,10 x_1,2,1 x_1,2,2 x_1,2,3 x_1,2,4 x_1,2,5 x_1,2,6 x_1,2,7
 x_1,2,8 x_1,2,9 x_1,2,10 x_1,3,1 x_1,3,2 x_1,3,3 x_1,3,4 x_1,3,5 x_1,3,6
 x_1,3,7 x_1,3,8 x_1,3,9 x_1,3,10 p_1,1,1 p_1,1,2 p_1,1,3 p_1,1,4 p_1,1,5
 p_1,1,6 p_1,1,7 p_1,1,8 p_1,1,9 gamma_1,1 gamma_1,2 gamma_1,3 gamma_1,4
 gamma_1,5 gamma_1,6 gamma_1,7 gamma_1,8 gamma_1,9
End
